Optimal - objective value 15078.00000000
      8 x...0009              43                       0
     10 x...0011               2                       0
    594 x...0595              75                       0
    599 x...0600            3885                       0
    600 x...0601              37                       0
    851 x...0852            3950         -0.0516455696202533
    990 x...0991            3950                       0
   1196 y...0009               1                    3018
   1198 y...0011               1                    3130
   1782 y...0595               1                    1678
   1787 y...0600               1                    1116
   1788 y...0601               1                    1625
   2039 y...0852               1                       0
   2178 y...0991               1                       0
